c defined variables: 13 25 29 33 37 41 45 49 53 57 61 65 69 73 77 81 85 89 93 97 101 105 109 113 126 136 140 144 148 152 156 160 164 168 172 176 180 184 188 192 196 200 204 208 212 216 220 224 231 232 234 235 236 238 239 241 242 243 244 246 247 249 250 251 253 254 256 257 258 259 260 262 263 265 266 267 269 270 272 273 274 275 277 278 280 281 282 284 285 287 288 289 290 291 292 294 295 297 298 299 301 302 304 305 306 307 309 310 312 313 314 316 317 319 320 321 322 323 325 326 328 329 330 332 333 336 338 339 341 342 343 345 346 348 349 350 351 352 353 354 355 356 357 358 359 360 361 362 363 364 365 366 367 368 369 370 371 372 373 374 375 376 377 378 379 380 381 382 383 384 385 386 387 388 389 390 391 392 393 394 395 396 397 398 399 400 401 402 403 404 405 406 407 408 409 410 411 412 413 414 415 416 417 418 419 420 421 422 423 424 425 426 427 428 429 430 431 433 434 435 436 437 438 439 440 441 442 443 444 445 446 447 448 449 450 452 
p cnf 1624 2081
a 68 72 56 64 48 60 40 52 32 44 296 300 264 268 271 276 279 283 286 293 337 432 324 318 331 327 308 303 315 311 20 36 4 8 24 16 1 28 12 347 5 340 344 21 2 9 17 191 183 167 171 179 175 151 155 159 163 255 261 233 237 230 248 252 240 245 199 203 187 195 215 219 211 207 223 227 104 96 100 92 88 84 76 80 112 108 122 135 129 132 116 139 125 119 147 143 0
e 3 6 7 10 11 14 15 18 19 22 23 26 27 30 31 34 35 38 39 42 43 46 47 50 51 54 55 58 59 62 63 66 67 70 71 74 75 78 79 82 83 86 87 90 91 94 95 98 99 102 103 106 107 110 111 114 115 117 118 120 121 123 124 127 128 130 131 133 134 137 138 141 142 145 146 149 150 153 154 157 158 161 162 165 166 169 170 173 174 177 178 181 182 185 186 189 190 193 194 197 198 201 202 205 206 209 210 213 214 217 218 221 222 225 226 228 229 335 451 13 25 29 33 37 41 45 49 53 57 61 65 69 73 77 81 85 89 93 97 101 105 109 113 126 136 140 144 148 152 156 160 164 168 172 176 180 184 188 192 196 200 204 208 212 216 220 224 231 232 234 235 236 238 239 241 242 243 244 246 247 249 250 251 253 254 256 257 258 259 260 262 263 265 266 267 269 270 272 273 274 275 277 278 280 281 282 284 285 287 288 289 290 291 292 294 295 297 298 299 301 302 304 305 306 307 309 310 312 313 314 316 317 319 320 321 322 323 325 326 328 329 330 332 333 336 338 339 341 342 343 345 346 348 349 350 351 352 353 354 355 356 357 358 359 360 361 362 363 364 365 366 367 368 369 370 371 372 373 374 375 376 377 378 379 380 381 382 383 384 385 386 387 388 389 390 391 392 393 394 395 396 397 398 399 400 401 402 403 404 405 406 407 408 409 410 411 412 413 414 415 416 417 418 419 420 421 422 423 424 425 426 427 428 429 430 431 433 434 435 436 437 438 439 440 441 442 443 444 445 446 447 448 449 450 452 1405 1406 1407 1408 1409 1410 1411 1412 1413 1414 1415 1416 1417 1418 1419 1420 1421 1422 1423 1424 1425 1426 1427 1428 1429 1430 1431 1432 1433 1434 1435 1436 1437 1438 1439 1440 1441 1442 1443 1444 1445 1446 1447 1448 1449 1450 1451 1452 1453 1454 1455 1456 1457 1458 1459 1460 1461 1462 1463 1464 1465 1466 1467 1468 1469 1470 1471 1472 1473 1474 1475 1476 1477 1478 1479 1480 1481 1482 1483 1484 1485 1486 1487 1488 1489 1490 1491 1492 1493 1494 1495 1496 1497 1498 1499 1500 1501 1502 1503 1504 1505 1506 1507 1508 1509 1510 1511 1512 1513 1514 1515 1516 1517 1518 1519 1520 1521 1522 1523 1524 1525 1526 1527 1528 1529 1530 1531 1532 1533 1534 1535 1536 1537 1538 1539 1540 1541 1542 1543 1544 1545 1546 1547 1548 1549 1550 1551 1552 1553 1554 1555 1556 1557 1558 1559 1560 1561 1562 1563 1564 1565 1566 1567 1568 1569 1570 1571 1572 1573 1574 1575 1576 1577 1578 1579 1580 1581 1582 1583 1584 1585 1586 1587 1588 1589 1590 1591 1592 1593 1594 1595 1596 1597 1598 1599 1600 1601 1602 1603 1604 1605 1606 1607 1608 1609 1610 1611 1612 1613 1614 1615 1616 1617 1618 1619 1620 1621 1622 1623 1624 0
d 334 5 227 2 9 432 0
1406 -13 0
-1406 13 0
1407 -25 0
-1407 25 0
1408 -29 0
-1408 29 0
1409 -33 0
-1409 33 0
1410 -37 0
-1410 37 0
1411 -41 0
-1411 41 0
1412 -45 0
-1412 45 0
1413 -49 0
-1413 49 0
1414 -53 0
-1414 53 0
1415 -57 0
-1415 57 0
1416 -61 0
-1416 61 0
1417 -65 0
-1417 65 0
1418 -69 0
-1418 69 0
1419 -73 0
-1419 73 0
1420 -77 0
-1420 77 0
1421 -81 0
-1421 81 0
1422 -85 0
-1422 85 0
1423 -89 0
-1423 89 0
1424 -93 0
-1424 93 0
1425 -97 0
-1425 97 0
1426 -101 0
-1426 101 0
1427 -105 0
-1427 105 0
1428 -109 0
-1428 109 0
1429 -113 0
-1429 113 0
1430 -126 0
-1430 126 0
1431 -136 0
-1431 136 0
1432 -140 0
-1432 140 0
1433 -144 0
-1433 144 0
1434 -148 0
-1434 148 0
1435 -152 0
-1435 152 0
1436 -156 0
-1436 156 0
1413 -160 0
-1413 160 0
1437 -164 0
-1437 164 0
1438 -168 0
-1438 168 0
1439 -172 0
-1439 172 0
1440 -176 0
-1440 176 0
1441 -180 0
-1441 180 0
1442 -184 0
-1442 184 0
1443 -188 0
-1443 188 0
1444 -192 0
-1444 192 0
1445 -196 0
-1445 196 0
1446 -200 0
-1446 200 0
1447 -204 0
-1447 204 0
1425 -208 0
-1425 208 0
1448 -212 0
-1448 212 0
1449 -216 0
-1449 216 0
1450 -220 0
-1450 220 0
1451 -224 0
-1451 224 0
1452 -231 0
-1452 231 0
1453 -232 0
-1453 232 0
1454 -234 0
-1454 234 0
1455 -235 0
-1455 235 0
-1456 -236 0
1456 236 0
1457 -238 0
-1457 238 0
1458 -239 0
-1458 239 0
1459 -241 0
-1459 241 0
1460 -242 0
-1460 242 0
-1461 -243 0
1461 243 0
-1462 -244 0
1462 244 0
1463 -246 0
-1463 246 0
1464 -247 0
-1464 247 0
1465 -249 0
-1465 249 0
1466 -250 0
-1466 250 0
-1467 -251 0
1467 251 0
1468 -253 0
-1468 253 0
1469 -254 0
-1469 254 0
1470 -256 0
-1470 256 0
1471 -257 0
-1471 257 0
-1472 -258 0
1472 258 0
-1473 -259 0
1473 259 0
-1474 -260 0
1474 260 0
1475 -262 0
-1475 262 0
1476 -263 0
-1476 263 0
1477 -265 0
-1477 265 0
1478 -266 0
-1478 266 0
-1479 -267 0
1479 267 0
1480 -269 0
-1480 269 0
1481 -270 0
-1481 270 0
1482 -272 0
-1482 272 0
1483 -273 0
-1483 273 0
-1484 -274 0
1484 274 0
-1485 -275 0
1485 275 0
1486 -277 0
-1486 277 0
1487 -278 0
-1487 278 0
1488 -280 0
-1488 280 0
1489 -281 0
-1489 281 0
-1490 -282 0
1490 282 0
1491 -284 0
-1491 284 0
1492 -285 0
-1492 285 0
1493 -287 0
-1493 287 0
1494 -288 0
-1494 288 0
-1495 -289 0
1495 289 0
-1496 -290 0
1496 290 0
-1497 -291 0
1497 291 0
-1498 -292 0
1498 292 0
1499 -294 0
-1499 294 0
1500 -295 0
-1500 295 0
1501 -297 0
-1501 297 0
1502 -298 0
-1502 298 0
-1503 -299 0
1503 299 0
1504 -301 0
-1504 301 0
-1505 -302 0
1505 302 0
1506 -304 0
-1506 304 0
1507 -305 0
-1507 305 0
-1508 -306 0
1508 306 0
-1509 -307 0
1509 307 0
1510 -309 0
-1510 309 0
1511 -310 0
-1511 310 0
1512 -312 0
-1512 312 0
1513 -313 0
-1513 313 0
-1514 -314 0
1514 314 0
1515 -316 0
-1515 316 0
1516 -317 0
-1516 317 0
1517 -319 0
-1517 319 0
1518 -320 0
-1518 320 0
-1519 -321 0
1519 321 0
-1520 -322 0
1520 322 0
-1521 -323 0
1521 323 0
1522 -325 0
-1522 325 0
1523 -326 0
-1523 326 0
1524 -328 0
-1524 328 0
1525 -329 0
-1525 329 0
-1526 -330 0
1526 330 0
1527 -332 0
-1527 332 0
1528 -333 0
-1528 333 0
-1529 -336 0
1529 336 0
1530 -338 0
-1530 338 0
1531 -339 0
-1531 339 0
1532 -341 0
-1532 341 0
1533 -342 0
-1533 342 0
-1534 -343 0
1534 343 0
1535 -345 0
-1535 345 0
1536 -346 0
-1536 346 0
1537 -348 0
-1537 348 0
1538 -349 0
-1538 349 0
-1539 -350 0
1539 350 0
-1540 -351 0
1540 351 0
-1541 -352 0
1541 352 0
-1542 -353 0
1542 353 0
-1543 -354 0
1543 354 0
1544 -355 0
-1544 355 0
1545 -356 0
-1545 356 0
1546 -357 0
-1546 357 0
1547 -358 0
-1547 358 0
-1548 -359 0
1548 359 0
1549 -360 0
-1549 360 0
1550 -361 0
-1550 361 0
1551 -362 0
-1551 362 0
1552 -363 0
-1552 363 0
-1553 -364 0
1553 364 0
-1554 -365 0
1554 365 0
1555 -366 0
-1555 366 0
1556 -367 0
-1556 367 0
1557 -368 0
-1557 368 0
1558 -369 0
-1558 369 0
-1559 -370 0
1559 370 0
1560 -371 0
-1560 371 0
1561 -372 0
-1561 372 0
1562 -373 0
-1562 373 0
1563 -374 0
-1563 374 0
-1564 -375 0
1564 375 0
-1565 -376 0
1565 376 0
-1566 -377 0
1566 377 0
1567 -378 0
-1567 378 0
1568 -379 0
-1568 379 0
1569 -380 0
-1569 380 0
1570 -381 0
-1570 381 0
-1571 -382 0
1571 382 0
1572 -383 0
-1572 383 0
1573 -384 0
-1573 384 0
1574 -385 0
-1574 385 0
1575 -386 0
-1575 386 0
-1576 -387 0
1576 387 0
-1577 -388 0
1577 388 0
1578 -389 0
-1578 389 0
1579 -390 0
-1579 390 0
1580 -391 0
-1580 391 0
1581 -392 0
-1581 392 0
-1582 -393 0
1582 393 0
1583 -394 0
-1583 394 0
1584 -395 0
-1584 395 0
1585 -396 0
-1585 396 0
1586 -397 0
-1586 397 0
-1587 -398 0
1587 398 0
-1588 -399 0
1588 399 0
-1589 -400 0
1589 400 0
-1591 -401 0
1591 401 0
1499 -402 0
-1499 402 0
1592 -403 0
-1592 403 0
1501 -404 0
-1501 404 0
1593 -405 0
-1593 405 0
-1594 -406 0
1594 406 0
1504 -407 0
-1504 407 0
1595 -408 0
-1595 408 0
1506 -409 0
-1506 409 0
1596 -410 0
-1596 410 0
-1597 -411 0
1597 411 0
-1598 -412 0
1598 412 0
1510 -413 0
-1510 413 0
1599 -414 0
-1599 414 0
1512 -415 0
-1512 415 0
1600 -416 0
-1600 416 0
-1601 -417 0
1601 417 0
1515 -418 0
-1515 418 0
1602 -419 0
-1602 419 0
1517 -420 0
-1517 420 0
1603 -421 0
-1603 421 0
-1604 -422 0
1604 422 0
-1605 -423 0
1605 423 0
-1606 -424 0
1606 424 0
1522 -425 0
-1522 425 0
1607 -426 0
-1607 426 0
1524 -427 0
-1524 427 0
1608 -428 0
-1608 428 0
-1609 -429 0
1609 429 0
1527 -430 0
-1527 430 0
1610 -431 0
-1610 431 0
1611 -433 0
-1611 433 0
1612 -434 0
-1612 434 0
-1613 -435 0
1613 435 0
-1614 -436 0
1614 436 0
1530 -437 0
-1530 437 0
1615 -438 0
-1615 438 0
1532 -439 0
-1532 439 0
1616 -440 0
-1616 440 0
-1617 -441 0
1617 441 0
1535 -442 0
-1535 442 0
1618 -443 0
-1618 443 0
1537 -444 0
-1537 444 0
1619 -445 0
-1619 445 0
-1620 -446 0
1620 446 0
-1621 -447 0
1621 447 0
-1622 -448 0
1622 448 0
-1623 -449 0
1623 449 0
-1624 -450 0
1624 450 0
1405 -452 0
-1405 452 0
452 0
-452 229 451 0
-229 226 -228 0
-226 222 -225 0
-222 218 -221 0
-218 214 -217 0
-214 210 -213 0
-210 206 -209 0
-206 202 -205 0
-202 198 -201 0
-198 194 -197 0
-194 190 -193 0
-190 186 -189 0
-186 182 -185 0
-182 178 -181 0
-178 174 -177 0
-174 170 -173 0
-170 166 -169 0
-166 162 -165 0
-162 158 -161 0
-158 154 -157 0
-154 150 -153 0
-150 146 -149 0
-146 142 -145 0
-142 138 -141 0
-138 134 -137 0
-134 131 -133 0
-131 128 -130 0
-128 124 -127 0
-124 121 -123 0
-121 118 -120 0
-118 115 -117 0
-115 111 -114 0
-111 107 -110 0
-107 103 -106 0
-103 99 -102 0
-99 95 -98 0
-95 91 -94 0
-91 87 -90 0
-87 83 -86 0
-83 79 -82 0
-79 75 -78 0
-75 71 -74 0
-71 67 -70 0
-67 63 -66 0
-63 59 -62 0
-59 55 -58 0
-55 51 -54 0
-51 47 -50 0
-47 43 -46 0
-43 39 -42 0
-39 35 -38 0
-35 31 -34 0
-31 27 -30 0
-27 23 -26 0
-23 19 -22 0
-19 15 -18 0
-15 11 -14 0
-11 7 -10 0
-7 -3 -6 0
1 -2 3 0
-1 2 3 0
4 -5 6 0
-4 5 6 0
8 -9 10 0
-8 9 10 0
12 13 14 0
-12 -13 14 0
-4 -8 13 0
-13 4 0
-13 8 0
16 -17 18 0
-16 17 18 0
20 -21 22 0
-20 21 22 0
24 25 26 0
-24 -25 26 0
-16 -20 25 0
-25 16 0
-25 20 0
28 29 30 0
-28 -29 30 0
-12 -24 29 0
-29 12 0
-29 24 0
32 33 34 0
-32 -33 34 0
-5 -8 33 0
-33 5 0
-33 8 0
36 37 38 0
-36 -37 38 0
-32 -24 37 0
-37 32 0
-37 24 0
40 41 42 0
-40 -41 42 0
-4 -9 41 0
-41 4 0
-41 9 0
44 45 46 0
-44 -45 46 0
-40 -24 45 0
-45 40 0
-45 24 0
48 49 50 0
-48 -49 50 0
-5 -9 49 0
-49 5 0
-49 9 0
52 53 54 0
-52 -53 54 0
-48 -24 53 0
-53 48 0
-53 24 0
56 57 58 0
-56 -57 58 0
-17 -20 57 0
-57 17 0
-57 20 0
60 61 62 0
-60 -61 62 0
-12 -56 61 0
-61 12 0
-61 56 0
64 65 66 0
-64 -65 66 0
-32 -56 65 0
-65 32 0
-65 56 0
68 69 70 0
-68 -69 70 0
-40 -56 69 0
-69 40 0
-69 56 0
72 73 74 0
-72 -73 74 0
-48 -56 73 0
-73 48 0
-73 56 0
76 77 78 0
-76 -77 78 0
-16 -21 77 0
-77 16 0
-77 21 0
80 81 82 0
-80 -81 82 0
-12 -76 81 0
-81 12 0
-81 76 0
84 85 86 0
-84 -85 86 0
-32 -76 85 0
-85 32 0
-85 76 0
88 89 90 0
-88 -89 90 0
-40 -76 89 0
-89 40 0
-89 76 0
92 93 94 0
-92 -93 94 0
-48 -76 93 0
-93 48 0
-93 76 0
96 97 98 0
-96 -97 98 0
-17 -21 97 0
-97 17 0
-97 21 0
100 101 102 0
-100 -101 102 0
-12 -96 101 0
-101 12 0
-101 96 0
104 105 106 0
-104 -105 106 0
-32 -96 105 0
-105 32 0
-105 96 0
108 109 110 0
-108 -109 110 0
-40 -96 109 0
-109 40 0
-109 96 0
112 113 114 0
-112 -113 114 0
-48 -96 113 0
-113 48 0
-113 96 0
116 -2 117 0
-116 2 117 0
119 -5 120 0
-119 5 120 0
122 -9 123 0
-122 9 123 0
125 126 127 0
-125 -126 127 0
-119 -122 126 0
-126 119 0
-126 122 0
129 -17 130 0
-129 17 130 0
132 -21 133 0
-132 21 133 0
135 136 137 0
-135 -136 137 0
-129 -132 136 0
-136 129 0
-136 132 0
139 140 141 0
-139 -140 141 0
-125 -135 140 0
-140 125 0
-140 135 0
143 144 145 0
-143 -144 145 0
-5 -122 144 0
-144 5 0
-144 122 0
147 148 149 0
-147 -148 149 0
-143 -135 148 0
-148 143 0
-148 135 0
151 152 153 0
-151 -152 153 0
-119 -9 152 0
-152 119 0
-152 9 0
155 156 157 0
-155 -156 157 0
-151 -135 156 0
-156 151 0
-156 135 0
159 160 161 0
-159 -160 161 0
-5 -9 160 0
-160 5 0
-160 9 0
163 164 165 0
-163 -164 165 0
-159 -135 164 0
-164 159 0
-164 135 0
167 168 169 0
-167 -168 169 0
-17 -132 168 0
-168 17 0
-168 132 0
171 172 173 0
-171 -172 173 0
-125 -167 172 0
-172 125 0
-172 167 0
175 176 177 0
-175 -176 177 0
-143 -167 176 0
-176 143 0
-176 167 0
179 180 181 0
-179 -180 181 0
-151 -167 180 0
-180 151 0
-180 167 0
183 184 185 0
-183 -184 185 0
-159 -167 184 0
-184 159 0
-184 167 0
187 188 189 0
-187 -188 189 0
-129 -21 188 0
-188 129 0
-188 21 0
191 192 193 0
-191 -192 193 0
-125 -187 192 0
-192 125 0
-192 187 0
195 196 197 0
-195 -196 197 0
-143 -187 196 0
-196 143 0
-196 187 0
199 200 201 0
-199 -200 201 0
-151 -187 200 0
-200 151 0
-200 187 0
203 204 205 0
-203 -204 205 0
-159 -187 204 0
-204 159 0
-204 187 0
207 208 209 0
-207 -208 209 0
-17 -21 208 0
-208 17 0
-208 21 0
211 212 213 0
-211 -212 213 0
-125 -207 212 0
-212 125 0
-212 207 0
215 216 217 0
-215 -216 217 0
-143 -207 216 0
-216 143 0
-216 207 0
219 220 221 0
-219 -220 221 0
-151 -207 220 0
-220 151 0
-220 207 0
223 224 225 0
-223 -224 225 0
-159 -207 224 0
-224 159 0
-224 207 0
227 187 228 0
-227 -187 228 0
-451 -354 450 0
-451 354 -450 0
-354 292 353 0
-292 260 291 0
-260 244 259 0
-244 236 243 0
-236 232 235 0
-232 231 0
-232 139 0
-231 116 0
-231 230 0
-235 234 0
-235 147 0
-234 116 0
-234 233 0
-243 239 242 0
-239 238 0
-239 155 0
-238 116 0
-238 237 0
-242 241 0
-242 163 0
-241 116 0
-241 240 0
-259 251 258 0
-251 247 250 0
-247 246 0
-247 171 0
-246 116 0
-246 245 0
-250 249 0
-250 175 0
-249 116 0
-249 248 0
-258 254 257 0
-254 253 0
-254 179 0
-253 116 0
-253 252 0
-257 256 0
-257 183 0
-256 116 0
-256 255 0
-291 275 290 0
-275 267 274 0
-267 263 266 0
-263 262 0
-263 191 0
-262 116 0
-262 261 0
-266 265 0
-266 195 0
-265 116 0
-265 264 0
-274 270 273 0
-270 269 0
-270 199 0
-269 116 0
-269 268 0
-273 272 0
-273 203 0
-272 116 0
-272 271 0
-290 282 289 0
-282 278 281 0
-278 277 0
-278 211 0
-277 116 0
-277 276 0
-281 280 0
-281 215 0
-280 116 0
-280 279 0
-289 285 288 0
-285 284 0
-285 219 0
-284 116 0
-284 283 0
-288 287 0
-288 223 0
-287 116 0
-287 286 0
-353 323 352 0
-323 307 322 0
-307 299 306 0
-299 295 298 0
-295 294 0
-295 139 0
-294 2 0
-294 293 0
-298 297 0
-298 147 0
-297 2 0
-297 296 0
-306 302 305 0
-302 301 155 0
-301 2 0
-301 300 0
-305 304 0
-305 163 0
-304 2 0
-304 303 0
-322 314 321 0
-314 310 313 0
-310 309 0
-310 171 0
-309 2 0
-309 308 0
-313 312 0
-313 175 0
-312 2 0
-312 311 0
-321 317 320 0
-317 316 0
-317 179 0
-316 2 0
-316 315 0
-320 319 0
-320 183 0
-319 2 0
-319 318 0
-352 336 351 0
-336 330 335 0
-330 326 329 0
-326 325 0
-326 191 0
-325 2 0
-325 324 0
-329 328 0
-329 195 0
-328 2 0
-328 327 0
-335 333 334 0
-333 332 0
-333 199 0
-332 2 0
-332 331 0
-351 343 350 0
-343 339 342 0
-339 338 0
-339 211 0
-338 2 0
-338 337 0
-342 341 0
-342 215 0
-341 2 0
-341 340 0
-350 346 349 0
-346 345 0
-346 219 0
-345 2 0
-345 344 0
-349 348 0
-349 223 0
-348 2 0
-348 347 0
-450 401 449 0
-401 377 400 0
-377 365 376 0
-365 359 364 0
-359 356 358 0
-356 355 0
-356 28 0
-355 1 0
-355 230 0
-358 357 0
-358 36 0
-357 1 0
-357 233 0
-364 361 363 0
-361 360 0
-361 44 0
-360 1 0
-360 237 0
-363 362 0
-363 52 0
-362 1 0
-362 240 0
-376 370 375 0
-370 367 369 0
-367 366 0
-367 60 0
-366 1 0
-366 245 0
-369 368 0
-369 64 0
-368 1 0
-368 248 0
-375 372 374 0
-372 371 0
-372 68 0
-371 1 0
-371 252 0
-374 373 0
-374 72 0
-373 1 0
-373 255 0
-400 388 399 0
-388 382 387 0
-382 379 381 0
-379 378 0
-379 80 0
-378 1 0
-378 261 0
-381 380 0
-381 84 0
-380 1 0
-380 264 0
-387 384 386 0
-384 383 0
-384 88 0
-383 1 0
-383 268 0
-386 385 0
-386 92 0
-385 1 0
-385 271 0
-399 393 398 0
-393 390 392 0
-390 389 0
-390 100 0
-389 1 0
-389 276 0
-392 391 0
-392 104 0
-391 1 0
-391 279 0
-398 395 397 0
-395 394 0
-395 108 0
-394 1 0
-394 283 0
-397 396 0
-397 112 0
-396 1 0
-396 286 0
-449 424 448 0
-424 412 423 0
-412 406 411 0
-406 403 405 0
-403 402 0
-403 28 0
-402 2 0
-402 293 0
-405 404 0
-405 36 0
-404 2 0
-404 296 0
-411 408 410 0
-408 407 0
-408 44 0
-407 2 0
-407 300 0
-410 409 0
-410 52 0
-409 2 0
-409 303 0
-423 417 422 0
-417 414 416 0
-414 413 0
-414 60 0
-413 2 0
-413 308 0
-416 415 0
-416 64 0
-415 2 0
-415 311 0
-422 419 421 0
-419 418 0
-419 68 0
-418 2 0
-418 315 0
-421 420 0
-421 72 0
-420 2 0
-420 318 0
-448 436 447 0
-436 429 435 0
-429 426 428 0
-426 425 0
-426 80 0
-425 2 0
-425 324 0
-428 427 0
-428 84 0
-427 2 0
-427 327 0
-435 431 434 0
-431 430 0
-431 88 0
-430 2 0
-430 331 0
-434 433 0
-434 92 0
-433 2 0
-433 432 0
-447 441 446 0
-441 438 440 0
-438 437 0
-438 100 0
-437 2 0
-437 337 0
-440 439 0
-440 104 0
-439 2 0
-439 340 0
-446 443 445 0
-443 442 0
-443 108 0
-442 2 0
-442 344 0
-445 444 0
-445 112 0
-444 2 0
-444 347 0
-292 353 354 0
292 -353 354 0
-292 -353 354 0
-260 291 292 0
260 -291 292 0
-260 -291 292 0
-244 259 260 0
244 -259 260 0
-244 -259 260 0
-236 243 244 0
236 -243 244 0
-236 -243 244 0
-232 235 236 0
232 -235 236 0
-232 -235 236 0
-231 -139 232 0
-116 -230 231 0
-234 -147 235 0
-116 -233 234 0
-239 242 243 0
239 -242 243 0
-239 -242 243 0
-238 -155 239 0
-116 -237 238 0
-241 -163 242 0
-116 -240 241 0
-251 258 259 0
251 -258 259 0
-251 -258 259 0
-247 250 251 0
247 -250 251 0
-247 -250 251 0
-246 -171 247 0
-116 -245 246 0
-249 -175 250 0
-116 -248 249 0
-254 257 258 0
254 -257 258 0
-254 -257 258 0
-253 -179 254 0
-116 -252 253 0
-256 -183 257 0
-116 -255 256 0
-275 290 291 0
275 -290 291 0
-275 -290 291 0
-267 274 275 0
267 -274 275 0
-267 -274 275 0
-263 266 267 0
263 -266 267 0
-263 -266 267 0
-262 -191 263 0
-116 -261 262 0
-265 -195 266 0
-116 -264 265 0
-270 273 274 0
270 -273 274 0
-270 -273 274 0
-269 -199 270 0
-116 -268 269 0
-272 -203 273 0
-116 -271 272 0
-282 289 290 0
282 -289 290 0
-282 -289 290 0
-278 281 282 0
278 -281 282 0
-278 -281 282 0
-277 -211 278 0
-116 -276 277 0
-280 -215 281 0
-116 -279 280 0
-285 288 289 0
285 -288 289 0
-285 -288 289 0
-284 -219 285 0
-116 -283 284 0
-287 -223 288 0
-116 -286 287 0
-323 352 353 0
323 -352 353 0
-323 -352 353 0
-307 322 323 0
307 -322 323 0
-307 -322 323 0
-299 306 307 0
299 -306 307 0
-299 -306 307 0
-295 298 299 0
295 -298 299 0
-295 -298 299 0
-294 -139 295 0
-2 -293 294 0
-297 -147 298 0
-2 -296 297 0
-302 305 306 0
302 -305 306 0
-302 -305 306 0
-301 155 302 0
301 -155 302 0
-301 -155 302 0
-2 -300 301 0
-304 -163 305 0
-2 -303 304 0
-314 321 322 0
314 -321 322 0
-314 -321 322 0
-310 313 314 0
310 -313 314 0
-310 -313 314 0
-309 -171 310 0
-2 -308 309 0
-312 -175 313 0
-2 -311 312 0
-317 320 321 0
317 -320 321 0
-317 -320 321 0
-316 -179 317 0
-2 -315 316 0
-319 -183 320 0
-2 -318 319 0
-336 351 352 0
336 -351 352 0
-336 -351 352 0
-330 335 336 0
330 -335 336 0
-330 -335 336 0
-326 329 330 0
326 -329 330 0
-326 -329 330 0
-325 -191 326 0
-2 -324 325 0
-328 -195 329 0
-2 -327 328 0
-333 334 335 0
333 -334 335 0
-333 -334 335 0
-332 -199 333 0
-2 -331 332 0
-343 350 351 0
343 -350 351 0
-343 -350 351 0
-339 342 343 0
339 -342 343 0
-339 -342 343 0
-338 -211 339 0
-2 -337 338 0
-341 -215 342 0
-2 -340 341 0
-346 349 350 0
346 -349 350 0
-346 -349 350 0
-345 -219 346 0
-2 -344 345 0
-348 -223 349 0
-2 -347 348 0
-401 449 450 0
401 -449 450 0
-401 -449 450 0
-377 400 401 0
377 -400 401 0
-377 -400 401 0
-365 376 377 0
365 -376 377 0
-365 -376 377 0
-359 364 365 0
359 -364 365 0
-359 -364 365 0
-356 358 359 0
356 -358 359 0
-356 -358 359 0
-355 -28 356 0
-1 -230 355 0
-357 -36 358 0
-1 -233 357 0
-361 363 364 0
361 -363 364 0
-361 -363 364 0
-360 -44 361 0
-1 -237 360 0
-362 -52 363 0
-1 -240 362 0
-370 375 376 0
370 -375 376 0
-370 -375 376 0
-367 369 370 0
367 -369 370 0
-367 -369 370 0
-366 -60 367 0
-1 -245 366 0
-368 -64 369 0
-1 -248 368 0
-372 374 375 0
372 -374 375 0
-372 -374 375 0
-371 -68 372 0
-1 -252 371 0
-373 -72 374 0
-1 -255 373 0
-388 399 400 0
388 -399 400 0
-388 -399 400 0
-382 387 388 0
382 -387 388 0
-382 -387 388 0
-379 381 382 0
379 -381 382 0
-379 -381 382 0
-378 -80 379 0
-1 -261 378 0
-380 -84 381 0
-1 -264 380 0
-384 386 387 0
384 -386 387 0
-384 -386 387 0
-383 -88 384 0
-1 -268 383 0
-385 -92 386 0
-1 -271 385 0
-393 398 399 0
393 -398 399 0
-393 -398 399 0
-390 392 393 0
390 -392 393 0
-390 -392 393 0
-389 -100 390 0
-1 -276 389 0
-391 -104 392 0
-1 -279 391 0
-395 397 398 0
395 -397 398 0
-395 -397 398 0
-394 -108 395 0
-1 -283 394 0
-396 -112 397 0
-1 -286 396 0
-424 448 449 0
424 -448 449 0
-424 -448 449 0
-412 423 424 0
412 -423 424 0
-412 -423 424 0
-406 411 412 0
406 -411 412 0
-406 -411 412 0
-403 405 406 0
403 -405 406 0
-403 -405 406 0
-402 -28 403 0
-2 -293 402 0
-404 -36 405 0
-2 -296 404 0
-408 410 411 0
408 -410 411 0
-408 -410 411 0
-407 -44 408 0
-2 -300 407 0
-409 -52 410 0
-2 -303 409 0
-417 422 423 0
417 -422 423 0
-417 -422 423 0
-414 416 417 0
414 -416 417 0
-414 -416 417 0
-413 -60 414 0
-2 -308 413 0
-415 -64 416 0
-2 -311 415 0
-419 421 422 0
419 -421 422 0
-419 -421 422 0
-418 -68 419 0
-2 -315 418 0
-420 -72 421 0
-2 -318 420 0
-436 447 448 0
436 -447 448 0
-436 -447 448 0
-429 435 436 0
429 -435 436 0
-429 -435 436 0
-426 428 429 0
426 -428 429 0
-426 -428 429 0
-425 -80 426 0
-2 -324 425 0
-427 -84 428 0
-2 -327 427 0
-431 434 435 0
431 -434 435 0
-431 -434 435 0
-430 -88 431 0
-2 -331 430 0
-433 -92 434 0
-2 -432 433 0
-441 446 447 0
441 -446 447 0
-441 -446 447 0
-438 440 441 0
438 -440 441 0
-438 -440 441 0
-437 -100 438 0
-2 -337 437 0
-439 -104 440 0
-2 -340 439 0
-443 445 446 0
443 -445 446 0
-443 -445 446 0
-442 -108 443 0
-2 -344 442 0
-444 -112 445 0
-2 -347 444 0
1405 0
4 -1406 0
8 -1406 0
-4 -8 1406 0
20 -1407 0
16 -1407 0
-20 -16 1407 0
24 -1408 0
12 -1408 0
-24 -12 1408 0
8 -1409 0
5 -1409 0
-8 -5 1409 0
32 -1410 0
24 -1410 0
-32 -24 1410 0
4 -1411 0
9 -1411 0
-4 -9 1411 0
40 -1412 0
24 -1412 0
-40 -24 1412 0
5 -1413 0
9 -1413 0
-5 -9 1413 0
48 -1414 0
24 -1414 0
-48 -24 1414 0
20 -1415 0
17 -1415 0
-20 -17 1415 0
56 -1416 0
12 -1416 0
-56 -12 1416 0
56 -1417 0
32 -1417 0
-56 -32 1417 0
56 -1418 0
40 -1418 0
-56 -40 1418 0
56 -1419 0
48 -1419 0
-56 -48 1419 0
16 -1420 0
21 -1420 0
-16 -21 1420 0
12 -1421 0
76 -1421 0
-12 -76 1421 0
32 -1422 0
76 -1422 0
-32 -76 1422 0
40 -1423 0
76 -1423 0
-40 -76 1423 0
48 -1424 0
76 -1424 0
-48 -76 1424 0
21 -1425 0
17 -1425 0
-21 -17 1425 0
12 -1426 0
96 -1426 0
-12 -96 1426 0
32 -1427 0
96 -1427 0
-32 -96 1427 0
40 -1428 0
96 -1428 0
-40 -96 1428 0
48 -1429 0
96 -1429 0
-48 -96 1429 0
122 -1430 0
119 -1430 0
-122 -119 1430 0
129 -1431 0
132 -1431 0
-129 -132 1431 0
135 -1432 0
125 -1432 0
-135 -125 1432 0
5 -1433 0
122 -1433 0
-5 -122 1433 0
135 -1434 0
143 -1434 0
-135 -143 1434 0
9 -1435 0
119 -1435 0
-9 -119 1435 0
151 -1436 0
135 -1436 0
-151 -135 1436 0
159 -1437 0
135 -1437 0
-159 -135 1437 0
17 -1438 0
132 -1438 0
-17 -132 1438 0
167 -1439 0
125 -1439 0
-167 -125 1439 0
167 -1440 0
143 -1440 0
-167 -143 1440 0
167 -1441 0
151 -1441 0
-167 -151 1441 0
167 -1442 0
159 -1442 0
-167 -159 1442 0
21 -1443 0
129 -1443 0
-21 -129 1443 0
187 -1444 0
125 -1444 0
-187 -125 1444 0
187 -1445 0
143 -1445 0
-187 -143 1445 0
151 -1446 0
187 -1446 0
-151 -187 1446 0
159 -1447 0
187 -1447 0
-159 -187 1447 0
207 -1448 0
125 -1448 0
-207 -125 1448 0
207 -1449 0
143 -1449 0
-207 -143 1449 0
151 -1450 0
207 -1450 0
-151 -207 1450 0
159 -1451 0
207 -1451 0
-159 -207 1451 0
230 -1452 0
116 -1452 0
-230 -116 1452 0
139 -1453 0
231 -1453 0
-139 -231 1453 0
233 -1454 0
116 -1454 0
-233 -116 1454 0
147 -1455 0
234 -1455 0
-147 -234 1455 0
-232 -1456 0
-235 -1456 0
232 235 1456 0
237 -1457 0
116 -1457 0
-237 -116 1457 0
155 -1458 0
238 -1458 0
-155 -238 1458 0
240 -1459 0
116 -1459 0
-240 -116 1459 0
163 -1460 0
241 -1460 0
-163 -241 1460 0
-239 -1461 0
-242 -1461 0
239 242 1461 0
-236 -1462 0
-243 -1462 0
236 243 1462 0
245 -1463 0
116 -1463 0
-245 -116 1463 0
171 -1464 0
246 -1464 0
-171 -246 1464 0
248 -1465 0
116 -1465 0
-248 -116 1465 0
175 -1466 0
249 -1466 0
-175 -249 1466 0
-247 -1467 0
-250 -1467 0
247 250 1467 0
252 -1468 0
116 -1468 0
-252 -116 1468 0
179 -1469 0
253 -1469 0
-179 -253 1469 0
255 -1470 0
116 -1470 0
-255 -116 1470 0
183 -1471 0
256 -1471 0
-183 -256 1471 0
-254 -1472 0
-257 -1472 0
254 257 1472 0
-251 -1473 0
-258 -1473 0
251 258 1473 0
-244 -1474 0
-259 -1474 0
244 259 1474 0
261 -1475 0
116 -1475 0
-261 -116 1475 0
191 -1476 0
262 -1476 0
-191 -262 1476 0
264 -1477 0
116 -1477 0
-264 -116 1477 0
195 -1478 0
265 -1478 0
-195 -265 1478 0
-263 -1479 0
-266 -1479 0
263 266 1479 0
268 -1480 0
116 -1480 0
-268 -116 1480 0
199 -1481 0
269 -1481 0
-199 -269 1481 0
271 -1482 0
116 -1482 0
-271 -116 1482 0
203 -1483 0
272 -1483 0
-203 -272 1483 0
-270 -1484 0
-273 -1484 0
270 273 1484 0
-267 -1485 0
-274 -1485 0
267 274 1485 0
276 -1486 0
116 -1486 0
-276 -116 1486 0
211 -1487 0
277 -1487 0
-211 -277 1487 0
279 -1488 0
116 -1488 0
-279 -116 1488 0
215 -1489 0
280 -1489 0
-215 -280 1489 0
-278 -1490 0
-281 -1490 0
278 281 1490 0
283 -1491 0
116 -1491 0
-283 -116 1491 0
219 -1492 0
284 -1492 0
-219 -284 1492 0
286 -1493 0
116 -1493 0
-286 -116 1493 0
223 -1494 0
287 -1494 0
-223 -287 1494 0
-285 -1495 0
-288 -1495 0
285 288 1495 0
-282 -1496 0
-289 -1496 0
282 289 1496 0
-275 -1497 0
-290 -1497 0
275 290 1497 0
-260 -1498 0
-291 -1498 0
260 291 1498 0
293 -1499 0
2 -1499 0
-293 -2 1499 0
139 -1500 0
294 -1500 0
-139 -294 1500 0
296 -1501 0
2 -1501 0
-296 -2 1501 0
147 -1502 0
297 -1502 0
-147 -297 1502 0
-295 -1503 0
-298 -1503 0
295 298 1503 0
300 -1504 0
2 -1504 0
-300 -2 1504 0
-155 -1505 0
-301 -1505 0
155 301 1505 0
303 -1506 0
2 -1506 0
-303 -2 1506 0
163 -1507 0
304 -1507 0
-163 -304 1507 0
-302 -1508 0
-305 -1508 0
302 305 1508 0
-299 -1509 0
-306 -1509 0
299 306 1509 0
308 -1510 0
2 -1510 0
-308 -2 1510 0
171 -1511 0
309 -1511 0
-171 -309 1511 0
311 -1512 0
2 -1512 0
-311 -2 1512 0
175 -1513 0
312 -1513 0
-175 -312 1513 0
-310 -1514 0
-313 -1514 0
310 313 1514 0
315 -1515 0
2 -1515 0
-315 -2 1515 0
179 -1516 0
316 -1516 0
-179 -316 1516 0
318 -1517 0
2 -1517 0
-318 -2 1517 0
183 -1518 0
319 -1518 0
-183 -319 1518 0
-317 -1519 0
-320 -1519 0
317 320 1519 0
-314 -1520 0
-321 -1520 0
314 321 1520 0
-307 -1521 0
-322 -1521 0
307 322 1521 0
324 -1522 0
2 -1522 0
-324 -2 1522 0
191 -1523 0
325 -1523 0
-191 -325 1523 0
327 -1524 0
2 -1524 0
-327 -2 1524 0
195 -1525 0
328 -1525 0
-195 -328 1525 0
-326 -1526 0
-329 -1526 0
326 329 1526 0
331 -1527 0
2 -1527 0
-331 -2 1527 0
199 -1528 0
332 -1528 0
-199 -332 1528 0
-330 -1529 0
-335 -1529 0
330 335 1529 0
337 -1530 0
2 -1530 0
-337 -2 1530 0
211 -1531 0
338 -1531 0
-211 -338 1531 0
340 -1532 0
2 -1532 0
-340 -2 1532 0
215 -1533 0
341 -1533 0
-215 -341 1533 0
-339 -1534 0
-342 -1534 0
339 342 1534 0
344 -1535 0
2 -1535 0
-344 -2 1535 0
219 -1536 0
345 -1536 0
-219 -345 1536 0
347 -1537 0
2 -1537 0
-347 -2 1537 0
223 -1538 0
348 -1538 0
-223 -348 1538 0
-346 -1539 0
-349 -1539 0
346 349 1539 0
-343 -1540 0
-350 -1540 0
343 350 1540 0
-336 -1541 0
1540 -1541 0
336 -1540 1541 0
-323 -1542 0
-352 -1542 0
323 352 1542 0
-292 -1543 0
1542 -1543 0
292 -1542 1543 0
1 -1544 0
230 -1544 0
-1 -230 1544 0
28 -1545 0
355 -1545 0
-28 -355 1545 0
1 -1546 0
233 -1546 0
-1 -233 1546 0
36 -1547 0
357 -1547 0
-36 -357 1547 0
-356 -1548 0
-358 -1548 0
356 358 1548 0
1 -1549 0
237 -1549 0
-1 -237 1549 0
44 -1550 0
360 -1550 0
-44 -360 1550 0
1 -1551 0
240 -1551 0
-1 -240 1551 0
52 -1552 0
362 -1552 0
-52 -362 1552 0
-361 -1553 0
-363 -1553 0
361 363 1553 0
-359 -1554 0
-364 -1554 0
359 364 1554 0
1 -1555 0
245 -1555 0
-1 -245 1555 0
60 -1556 0
366 -1556 0
-60 -366 1556 0
1 -1557 0
248 -1557 0
-1 -248 1557 0
64 -1558 0
368 -1558 0
-64 -368 1558 0
-367 -1559 0
-369 -1559 0
367 369 1559 0
1 -1560 0
252 -1560 0
-1 -252 1560 0
68 -1561 0
371 -1561 0
-68 -371 1561 0
1 -1562 0
255 -1562 0
-1 -255 1562 0
72 -1563 0
373 -1563 0
-72 -373 1563 0
-372 -1564 0
-374 -1564 0
372 374 1564 0
-370 -1565 0
-375 -1565 0
370 375 1565 0
-365 -1566 0
1565 -1566 0
365 -1565 1566 0
1 -1567 0
261 -1567 0
-1 -261 1567 0
80 -1568 0
378 -1568 0
-80 -378 1568 0
264 -1569 0
1 -1569 0
-264 -1 1569 0
84 -1570 0
380 -1570 0
-84 -380 1570 0
-379 -1571 0
-381 -1571 0
379 381 1571 0
268 -1572 0
1 -1572 0
-268 -1 1572 0
88 -1573 0
383 -1573 0
-88 -383 1573 0
271 -1574 0
1 -1574 0
-271 -1 1574 0
92 -1575 0
385 -1575 0
-92 -385 1575 0
-384 -1576 0
-386 -1576 0
384 386 1576 0
-382 -1577 0
-387 -1577 0
382 387 1577 0
276 -1578 0
1 -1578 0
-276 -1 1578 0
100 -1579 0
389 -1579 0
-100 -389 1579 0
279 -1580 0
1 -1580 0
-279 -1 1580 0
104 -1581 0
391 -1581 0
-104 -391 1581 0
-390 -1582 0
-392 -1582 0
390 392 1582 0
283 -1583 0
1 -1583 0
-283 -1 1583 0
108 -1584 0
394 -1584 0
-108 -394 1584 0
286 -1585 0
1 -1585 0
-286 -1 1585 0
112 -1586 0
396 -1586 0
-112 -396 1586 0
-395 -1587 0
-397 -1587 0
395 397 1587 0
-393 -1588 0
-398 -1588 0
393 398 1588 0
-388 -1589 0
1588 -1589 0
388 -1588 1589 0
-377 -1590 0
-388 -1590 0
377 388 1590 0
-399 -1591 0
1590 -1591 0
399 -1590 1591 0
28 -1592 0
402 -1592 0
-28 -402 1592 0
36 -1593 0
404 -1593 0
-36 -404 1593 0
-403 -1594 0
-405 -1594 0
403 405 1594 0
44 -1595 0
407 -1595 0
-44 -407 1595 0
52 -1596 0
409 -1596 0
-52 -409 1596 0
-408 -1597 0
-410 -1597 0
408 410 1597 0
-406 -1598 0
-411 -1598 0
406 411 1598 0
60 -1599 0
413 -1599 0
-60 -413 1599 0
64 -1600 0
415 -1600 0
-64 -415 1600 0
-414 -1601 0
-416 -1601 0
414 416 1601 0
68 -1602 0
418 -1602 0
-68 -418 1602 0
72 -1603 0
420 -1603 0
-72 -420 1603 0
-419 -1604 0
-421 -1604 0
419 421 1604 0
-417 -1605 0
-422 -1605 0
417 422 1605 0
-412 -1606 0
1605 -1606 0
412 -1605 1606 0
80 -1607 0
425 -1607 0
-80 -425 1607 0
84 -1608 0
427 -1608 0
-84 -427 1608 0
-426 -1609 0
-428 -1609 0
426 428 1609 0
88 -1610 0
430 -1610 0
-88 -430 1610 0
432 -1611 0
2 -1611 0
-432 -2 1611 0
92 -1612 0
433 -1612 0
-92 -433 1612 0
-431 -1613 0
-434 -1613 0
431 434 1613 0
-429 -1614 0
-435 -1614 0
429 435 1614 0
100 -1615 0
437 -1615 0
-100 -437 1615 0
104 -1616 0
439 -1616 0
-104 -439 1616 0
-438 -1617 0
-440 -1617 0
438 440 1617 0
108 -1618 0
442 -1618 0
-108 -442 1618 0
112 -1619 0
444 -1619 0
-112 -444 1619 0
-443 -1620 0
-445 -1620 0
443 445 1620 0
-441 -1621 0
-446 -1621 0
441 446 1621 0
-436 -1622 0
1621 -1622 0
436 -1621 1622 0
-424 -1623 0
-448 -1623 0
424 448 1623 0
-401 -1624 0
1623 -1624 0
401 -1623 1624 0
